c Generated map
c Size: 13 * 13, weights in range: 1 to 10, walls: True, with ratio 0.1
c dim 2 of 4
c
p sp 169 249
c graph contains 169 nodes and 249 arcs
c
a 1 14 5
a 14 1 5
a 1 2 6
a 2 1 6
a 2 3 2
a 3 2 2
a 3 16 1
a 16 3 1
a 3 4 5
a 4 3 5
a 4 17 8
a 17 4 8
a 4 5 4
a 5 4 4
a 5 18 7
a 18 5 7
a 5 6 4
a 6 5 4
a 6 7 7
a 7 6 7
a 7 20 10
a 20 7 10
a 7 8 10
a 8 7 10
a 8 21 1
a 21 8 1
a 8 9 4
a 9 8 4
a 9 22 1
a 22 9 1
a 9 10 5
a 10 9 5
a 10 23 9
a 23 10 9
a 10 11 3
a 11 10 3
a 11 24 6
a 24 11 6
a 13 26 3
a 26 13 3
a 14 27 3
a 27 14 3
a 16 29 4
a 29 16 4
a 16 17 8
a 17 16 8
a 17 30 9
a 30 17 9
a 17 18 5
a 18 17 5
a 18 31 1
a 31 18 1
a 20 21 4
a 21 20 4
a 21 34 3
a 34 21 3
a 21 22 6
a 22 21 6
a 22 23 9
a 23 22 9
a 23 36 6
a 36 23 6
a 23 24 4
a 24 23 4
a 24 37 10
a 37 24 10
a 24 25 1
a 25 24 1
a 25 38 2
a 38 25 2
a 25 26 5
a 26 25 5
a 26 39 5
a 39 26 5
a 27 40 1
a 40 27 1
a 27 28 3
a 28 27 3
a 28 41 1
a 41 28 1
a 28 29 2
a 29 28 2
a 29 42 6
a 42 29 6
a 29 30 4
a 30 29 4
a 30 31 5
a 31 30 5
a 31 44 2
a 44 31 2
a 31 32 3
a 32 31 3
a 34 47 5
a 47 34 5
a 36 49 2
a 49 36 2
a 36 37 8
a 37 36 8
a 37 50 4
a 50 37 4
a 37 38 10
a 38 37 10
a 38 51 4
a 51 38 4
a 38 39 9
a 39 38 9
a 40 53 7
a 53 40 7
a 40 41 3
a 41 40 3
a 41 54 7
a 54 41 7
a 41 42 2
a 42 41 2
a 42 55 9
a 55 42 9
a 44 57 8
a 57 44 8
a 46 59 2
a 59 46 2
a 46 47 6
a 47 46 6
a 47 60 5
a 60 47 5
a 47 48 2
a 48 47 2
a 48 61 5
a 61 48 5
a 48 49 8
a 49 48 8
a 49 62 5
a 62 49 5
a 49 50 4
a 50 49 4
a 50 63 2
a 63 50 2
a 50 51 7
a 51 50 7
a 51 64 4
a 64 51 4
a 53 66 9
a 66 53 9
a 53 54 6
a 54 53 6
a 54 67 1
a 67 54 1
a 54 55 6
a 55 54 6
a 55 68 8
a 68 55 8
a 55 56 10
a 56 55 10
a 56 69 1
a 69 56 1
a 56 57 10
a 57 56 10
a 57 70 6
a 70 57 6
a 57 58 2
a 58 57 2
a 58 71 4
a 71 58 4
a 58 59 8
a 59 58 8
a 59 72 1
a 72 59 1
a 59 60 10
a 60 59 10
a 60 73 4
a 73 60 4
a 60 61 8
a 61 60 8
a 61 74 9
a 74 61 9
a 61 62 1
a 62 61 1
a 62 75 6
a 75 62 6
a 62 63 2
a 63 62 2
a 63 76 4
a 76 63 4
a 63 64 8
a 64 63 8
a 64 65 1
a 65 64 1
a 65 78 4
a 78 65 4
a 66 79 6
a 79 66 6
a 66 67 5
a 67 66 5
a 67 68 8
a 68 67 8
a 68 81 5
a 81 68 5
a 68 69 5
a 69 68 5
a 69 82 2
a 82 69 2
a 69 70 1
a 70 69 1
a 70 83 3
a 83 70 3
a 70 71 2
a 71 70 2
a 71 84 9
a 84 71 9
a 71 72 9
a 72 71 9
a 72 85 2
a 85 72 2
a 72 73 9
a 73 72 9
a 73 86 10
a 86 73 10
a 73 74 9
a 74 73 9
a 74 87 2
a 87 74 2
a 74 75 2
a 75 74 2
a 75 88 7
a 88 75 7
a 75 76 2
a 76 75 2
a 76 89 5
a 89 76 5
a 79 92 3
a 92 79 3
a 81 94 10
a 94 81 10
a 81 82 10
a 82 81 10
a 82 95 4
a 95 82 4
a 82 83 1
a 83 82 1
a 83 96 8
a 96 83 8
a 83 84 4
a 84 83 4
a 84 97 4
a 97 84 4
a 84 85 6
a 85 84 6
a 85 98 10
a 98 85 10
a 85 86 2
a 86 85 2
a 86 99 10
a 99 86 10
a 86 87 6
a 87 86 6
a 87 100 10
a 100 87 10
a 87 88 6
a 88 87 6
a 88 101 6
a 101 88 6
a 88 89 2
a 89 88 2
a 89 102 9
a 102 89 9
a 89 90 7
a 90 89 7
a 90 103 1
a 103 90 1
a 92 105 5
a 105 92 5
a 92 93 8
a 93 92 8
a 93 106 3
a 106 93 3
a 93 94 6
a 94 93 6
a 94 107 10
a 107 94 10
a 94 95 5
a 95 94 5
a 95 108 3
a 108 95 3
a 95 96 8
a 96 95 8
a 96 109 3
a 109 96 3
a 96 97 4
a 97 96 4
a 97 110 9
a 110 97 9
a 97 98 5
a 98 97 5
a 98 111 7
a 111 98 7
a 98 99 5
a 99 98 5
a 99 112 7
a 112 99 7
a 99 100 4
a 100 99 4
a 100 113 6
a 113 100 6
a 100 101 1
a 101 100 1
a 101 114 3
a 114 101 3
a 101 102 7
a 102 101 7
a 102 115 8
a 115 102 8
a 102 103 1
a 103 102 1
a 103 104 5
a 104 103 5
a 104 117 8
a 117 104 8
a 105 118 3
a 118 105 3
a 105 106 8
a 106 105 8
a 106 119 2
a 119 106 2
a 106 107 8
a 107 106 8
a 107 120 9
a 120 107 9
a 107 108 10
a 108 107 10
a 108 109 1
a 109 108 1
a 109 122 8
a 122 109 8
a 109 110 6
a 110 109 6
a 110 123 1
a 123 110 1
a 110 111 2
a 111 110 2
a 111 124 7
a 124 111 7
a 111 112 9
a 112 111 9
a 112 125 10
a 125 112 10
a 112 113 9
a 113 112 9
a 113 126 7
a 126 113 7
a 113 114 5
a 114 113 5
a 114 127 10
a 127 114 10
a 114 115 10
a 115 114 10
a 117 130 9
a 130 117 9
a 118 131 5
a 131 118 5
a 118 119 6
a 119 118 6
a 119 132 2
a 132 119 2
a 119 120 4
a 120 119 4
a 120 133 9
a 133 120 9
a 122 135 7
a 135 122 7
a 122 123 3
a 123 122 3
a 123 136 6
a 136 123 6
a 123 124 4
a 124 123 4
a 124 137 7
a 137 124 7
a 124 125 5
a 125 124 5
a 125 138 9
a 138 125 9
a 125 126 8
a 126 125 8
a 126 139 2
a 139 126 2
a 126 127 2
a 127 126 2
a 127 140 3
a 140 127 3
a 129 142 3
a 142 129 3
a 129 130 10
a 130 129 10
a 130 143 1
a 143 130 1
a 131 144 7
a 144 131 7
a 131 132 5
a 132 131 5
a 132 145 8
a 145 132 8
a 132 133 2
a 133 132 2
a 133 146 9
a 146 133 9
a 135 148 7
a 148 135 7
a 135 136 9
a 136 135 9
a 136 149 2
a 149 136 2
a 136 137 10
a 137 136 10
a 137 150 7
a 150 137 7
a 137 138 7
a 138 137 7
a 138 151 3
a 151 138 3
a 138 139 4
a 139 138 4
a 139 140 6
a 140 139 6
a 140 153 6
a 153 140 6
a 140 141 2
a 141 140 2
a 141 154 5
a 154 141 5
a 141 142 9
a 142 141 9
a 142 155 7
a 155 142 7
a 142 143 6
a 143 142 6
a 143 156 5
a 156 143 5
a 144 157 2
a 157 144 2
a 144 145 3
a 145 144 3
a 145 158 3
a 158 145 3
a 145 146 4
a 146 145 4
a 146 159 4
a 159 146 4
a 148 161 8
a 161 148 8
a 148 149 8
a 149 148 8
a 149 162 3
a 162 149 3
a 149 150 6
a 150 149 6
a 150 163 2
a 163 150 2
a 150 151 3
a 151 150 3
a 151 164 7
a 164 151 7
a 153 166 7
a 166 153 7
a 153 154 10
a 154 153 10
a 154 167 10
a 167 154 10
a 154 155 2
a 155 154 2
a 155 168 7
a 168 155 7
a 155 156 3
a 156 155 3
a 156 169 5
a 169 156 5
a 157 158 6
a 158 157 6
a 158 159 7
a 159 158 7
a 159 160 4
a 160 159 4
a 160 161 1
a 161 160 1
a 161 162 4
a 162 161 4
a 162 163 5
a 163 162 5
a 163 164 6
a 164 163 6
a 164 165 3
a 165 164 3
a 165 166 4
a 166 165 4
a 166 167 9
a 167 166 9
a 167 168 1
a 168 167 1
a 168 169 10
a 169 168 10
